tmp/VRPwTW.sol
Total_Cost = 1

X :=
;

Served :=
;

ATime :=
;

DTime :=
;

RouteDuration [*] :=
;

WTime :=
Ivanovo_7Continent      1   0
Ivanovo_ASHAN           1   0
Ivanovo_Magnit          1   0
Ivanovo_Okey            1   0
MoscowDepot             1   0
NaberezhnyeChelny_LENTA 1   0
Perm_LENTA              1   0
Pyshma_Perekrestok      1   0
Ufa_ASHAN               1   0
Ufa_LENTA               1   0
Ufa_Magnit              1   0
Ufa_OKEYe               1   0
Ufa_OKEYk               1   0
Ufa_OKEYmj              1   0
Yekaterinburg_ASHANh    1   0
Yekaterinburg_ASHANm    1   0
;

